# Objective value = 1.9809324417694590e+03
x[0] 0
x[1] 1
x[2] 0
x[3] 1
x[4] 1
x[5] 0
x[6] 0
x[7] 1
x[8] 0
x[9] 1
x[10] 0
x[11] 1
x[12] 1
x[13] 1
x[14] 1
x[15] 0
x[16] 0
x[17] 0
x[18] 0
x[19] 1
x[20] 1
x[21] 1
x[22] 1
x[23] 1
x[24] 0
x[25] 1
x[26] 1
x[27] 0
x[28] 0
x[29] 1
x[30] 0
x[31] 0
x[32] 1
x[33] 1
x[34] 1
x[35] 1
x[36] 0
x[37] 1
x[38] 1
x[39] 0
x[40] 1
x[41] 1
x[42] 1
x[43] 1
x[44] 0
x[45] 0
x[46] 1
x[47] 0
x[48] 1
x[49] 1
x[50] 1
x[51] 1
x[52] 0
x[53] 0
x[54] 1
x[55] 0
x[56] 1
x[57] 0
x[58] 1
x[59] 1
x[60] 0
x[61] 1
x[62] 0
x[63] 1
x[64] 1
x[65] 0
x[66] 0
x[67] 0
x[68] 1
x[69] 0
x[70] 0
x[71] 1
x[72] 0
x[73] 1
x[74] 0
x[75] 0
x[76] 1
x[77] 0
x[78] 0
x[79] 0
x[80] 0
x[81] 1
x[82] 1
x[83] 1
x[84] 0
x[85] 0
x[86] 1
x[87] 1
x[88] 0
x[89] 0
x[90] 0
x[91] 0
x[92] 1
x[93] 0
x[94] 1
x[95] 1
x[96] 0
x[97] 0
x[98] 0
x[99] 1
x[100] 1
x[101] 1
x[102] 1
x[103] 1
x[104] 1
x[105] 0
x[106] 0
x[107] 0
x[108] 1
x[109] 1
x[110] 1
x[111] 1
x[112] 1
x[113] 1
x[114] 1
x[115] 0
x[116] 1
x[117] 1
x[118] 0
x[119] 1
x[120] 0
x[121] 0
x[122] 1
x[123] 1
x[124] 0
x[125] 0
x[126] 1
x[127] 0
x[128] 1
x[129] 1
x[130] 0
x[131] 1
x[132] 1
x[133] 0
x[134] 0
x[135] 0
x[136] 0
x[137] 1
x[138] 1
x[139] 1
x[140] 0
x[141] 1
x[142] 1
x[143] 1
x[144] 0
x[145] 0
x[146] 1
x[147] 1
x[148] 1
x[149] 1
x[150] 0
x[151] 0
x[152] 1
x[153] 0
x[154] 1
x[155] 1
x[156] 0
x[157] 0
x[158] 0
x[159] 1
x[160] 1
x[161] 1
x[162] 1
x[163] 1
x[164] 1
x[165] 0
x[166] 1
x[167] 1
x[168] 0
x[169] 1
x[170] 0
x[171] 0
x[172] 1
x[173] 1
x[174] 1
x[175] 1
x[176] 0
x[177] 1
x[178] 1
x[179] 1
x[180] 0
x[181] 1
x[182] 0
x[183] 0
x[184] 1
x[185] 1
x[186] 1
x[187] 1
x[188] 1
x[189] 0
x[190] 1
x[191] 1
x[192] 1
x[193] 0
x[194] 0
x[195] 0
x[196] 1
x[197] 0
x[198] 1
x[199] 1
x[200] 1
x[201] 0
x[202] 1
x[203] 1
x[204] 1
x[205] 0
x[206] 0
x[207] 1
x[208] 0
x[209] 1
x[210] 1
x[211] 1
x[212] 0
x[213] 0
x[214] 0
x[215] 1
x[216] 0
x[217] 1
x[218] 0
x[219] 1
x[220] 1
x[221] 0
x[222] 0
x[223] 0
x[224] 1
x[225] 0
x[226] 0
x[227] 0
x[228] 0
x[229] 1
x[230] 0
x[231] 0
x[232] 0
x[233] 0
x[234] 1
x[235] 0
x[236] 0
x[237] 1
x[238] 1
x[239] 0
x[240] 0
x[241] 0
x[242] 0
x[243] 1
x[244] 0
x[245] 1
x[246] 0
x[247] 1
x[248] 1
x[249] 1
x[250] 1
x[251] 0
x[252] 0
x[253] 0
x[254] 1
x[255] 1
x[256] 1
x[257] 0
x[258] 1
x[259] 1
x[260] 0
x[261] 1
x[262] 0
x[263] 1
x[264] 0
x[265] 1
x[266] 1
x[267] 1
x[268] 1
x[269] 1
x[270] 1
x[271] 0
x[272] 1
x[273] 0
x[274] 1
x[275] 1
x[276] 1
x[277] 0
x[278] 1
x[279] 1
x[280] 1
x[281] 0
x[282] 0
x[283] 1
x[284] 1
x[285] 1
x[286] 1
x[287] 1
x[288] 0
x[289] 0
x[290] 0
x[291] 0
x[292] 1
x[293] 1
x[294] 1
x[295] 1
x[296] 0
x[297] 1
x[298] 1
x[299] 0
x[300] 1
x[301] 1
x[302] 0
x[303] 1
x[304] 0
x[305] 0
x[306] 1
x[307] 0
x[308] 1
x[309] 0
x[310] 1
x[311] 0
x[312] 1
x[313] 0
x[314] 1
x[315] 1
x[316] 1
x[317] 0
x[318] 0
x[319] 0
x[320] 1
x[321] 1
x[322] 1
x[323] 1
x[324] 0
x[325] 1
x[326] 1
x[327] 0
x[328] 0
x[329] 1
x[330] 0
x[331] 1
x[332] 0
x[333] 0
x[334] 1
x[335] 1
x[336] 1
x[337] 1
x[338] 0
x[339] 1
x[340] 1
x[341] 0
x[342] 1
x[343] 1
x[344] 0
x[345] 0
x[346] 0
x[347] 1
x[348] 1
x[349] 0
x[350] 0
x[351] 0
x[352] 0
x[353] 1
x[354] 0
x[355] 1
x[356] 0
x[357] 0
x[358] 1
x[359] 0
x[360] 0
x[361] 0
x[362] 0
x[363] 0
x[364] 1
x[365] 1
x[366] 1
x[367] 1
x[368] 0
x[369] 1
x[370] 0
x[371] 1
x[372] 1
x[373] 1
x[374] 1
x[375] 1
x[376] 1
x[377] 1
x[378] 0
x[379] 1
x[380] 1
x[381] 0
x[382] 0
x[383] 0
x[384] 1
x[385] 1
x[386] 1
x[387] 0
x[388] 1
x[389] 0
x[390] 0
x[391] 1
x[392] 1
x[393] 1
x[394] 1
x[395] 0
x[396] 1
x[397] 1
x[398] 1
x[399] 0
x[400] 1
x[401] 0
x[402] 0
x[403] 1
x[404] 1
x[405] 0
x[406] 0
x[407] 0
x[408] 0
x[409] 0
x[410] 1
x[411] 1
x[412] 0
x[413] 1
x[414] 1
x[415] 1
x[416] 1
x[417] 1
x[418] 1
x[419] 1
x[420] 0
x[421] 0
x[422] 0
x[423] 1
x[424] 1
x[425] 0
x[426] 0
x[427] 0
x[428] 0
x[429] 0
x[430] 1
x[431] 1
x[432] 1
x[433] 1
x[434] 0
x[435] 1
x[436] 1
x[437] 1
x[438] 1
x[439] 1
x[440] 1
x[441] 1
x[442] 0
x[443] 1
x[444] 1
x[445] 0
x[446] 1
x[447] 0
x[448] 1
x[449] 1
x[450] 1
x[451] 0
x[452] 0
x[453] 0
x[454] 0
x[455] 0
x[456] 0
x[457] 1
x[458] 1
x[459] 0
x[460] 0
x[461] 1
x[462] 1
x[463] 0
x[464] 1
x[465] 0
x[466] 1
x[467] 0
x[468] 0
x[469] 0
x[470] 0
x[471] 0
x[472] 0
x[473] 1
x[474] 0
x[475] 1
x[476] 1
x[477] 1
x[478] 1
x[479] 0
x[480] 0
x[481] 1
x[482] 0
x[483] 1
x[484] 0
x[485] 0
x[486] 1
x[487] 0
x[488] 1
x[489] 1
x[490] 0
x[491] 0
x[492] 0
x[493] 0
x[494] 0
x[495] 1
x[496] 1
x[497] 0
x[498] 0
x[499] 0
x[500] 1
x[501] 1
x[502] 0
x[503] 1
x[504] 1
x[505] 0
x[506] 0
x[507] 1
x[508] 1
x[509] 1
x[510] 1
x[511] 1
x[512] 1
x[513] 1
x[514] 0
x[515] 0
x[516] 1
x[517] 1
x[518] 1
x[519] 1
x[520] 1
x[521] 0
x[522] 0
x[523] 1
x[524] 0
x[525] 1
x[526] 1
x[527] 1
x[528] 1
x[529] 1
x[530] 0
x[531] 1
x[532] 1
x[533] 0
x[534] 0
x[535] 1
x[536] 1
x[537] 1
x[538] 1
x[539] 1
x[540] 0
x[541] 1
x[542] 0
x[543] 1
x[544] 1
x[545] 1
x[546] 1
x[547] 1
x[548] 0
x[549] 1
x[550] 1
x[551] 1
x[552] 0
x[553] 0
x[554] 1
x[555] 1
x[556] 0
x[557] 1
x[558] 1
x[559] 1
x[560] 1
x[561] 1
x[562] 0
x[563] 1
x[564] 0
x[565] 0
x[566] 1
x[567] 0
x[568] 1
x[569] 0
x[570] 1
x[571] 1
x[572] 1
x[573] 1
x[574] 1
x[575] 1
x[576] 1
x[577] 1
x[578] 0
x[579] 1
x[580] 1
x[581] 0
x[582] 0
x[583] 0
x[584] 1
x[585] 1
x[586] 0
x[587] 1
x[588] 0
x[589] 0
x[590] 0
x[591] 1
x[592] 1
x[593] 1
x[594] 0
x[595] 1
x[596] 0
x[597] 0
x[598] 1
x[599] 0
x[600] 0
x[601] 1
x[602] 0
x[603] 1
x[604] 0
x[605] 1
x[606] 1
x[607] 1
x[608] 1
x[609] 1
x[610] 1
x[611] 1
x[612] 0
x[613] 0
x[614] 0
x[615] 0
x[616] 0
x[617] 0
x[618] 0
x[619] 1
x[620] 0
x[621] 0
x[622] 0
x[623] 1
x[624] 1
x[625] 1
x[626] 1
x[627] 1
x[628] 1
x[629] 0
x[630] 0
x[631] 0
x[632] 1
x[633] 0
x[634] 0
x[635] 0
x[636] 1
x[637] 1
x[638] 0
x[639] 0
x[640] 1
x[641] 0
x[642] 0
x[643] 1
x[644] 0
x[645] 1
x[646] 1
x[647] 1
x[648] 1
x[649] 0
x[650] 1
x[651] 1
x[652] 1
x[653] 1
x[654] 1
x[655] 1
x[656] 1
x[657] 1
x[658] 0
x[659] 0
x[660] 0
x[661] 1
x[662] 1
x[663] 0
x[664] 0
x[665] 0
x[666] 1
x[667] 0
x[668] 0
x[669] 1
x[670] 0
x[671] 1
x[672] 0
x[673] 1
x[674] 1
x[675] 0
x[676] 0
x[677] 0
x[678] 1
x[679] 0
x[680] 1
x[681] 1
x[682] 1
x[683] 0
x[684] 0
x[685] 1
x[686] 1
x[687] 0
x[688] 1
x[689] 0
x[690] 1
x[691] 0
x[692] 1
x[693] 0
x[694] 1
x[695] 0
x[696] 0
x[697] 1
x[698] 1
x[699] 1
x[700] 0
x[701] 1
x[702] 1
x[703] 0
x[704] 1
x[705] 1
x[706] 1
x[707] 1
x[708] 1
x[709] 1
x[710] 1
x[711] 1
x[712] 0
x[713] 1
x[714] 1
x[715] 1
x[716] 0
x[717] 0
x[718] 0
x[719] 1
x[720] 1
x[721] 1
x[722] 1
x[723] 0
x[724] 0
x[725] 0
x[726] 1
x[727] 0
x[728] 1
x[729] 0
x[730] 1
x[731] 0
x[732] 0
x[733] 0
x[734] 0
x[735] 0
x[736] 1
x[737] 0
x[738] 1
x[739] 1
x[740] 1
x[741] 0
x[742] 1
x[743] 0
x[744] 0
x[745] 1
x[746] 1
x[747] 0
x[748] 0
x[749] 0
x[750] 0
x[751] 0
x[752] 1
x[753] 1
x[754] 0
x[755] 1
x[756] 1
x[757] 1
x[758] 1
x[759] 1
x[760] 0
x[761] 0
x[762] 0
x[763] 1
x[764] 0
x[765] 0
x[766] 1
x[767] 1
x[768] 0
x[769] 1
x[770] 1
x[771] 0
x[772] 0
x[773] 1
x[774] 1
x[775] 0
x[776] 0
x[777] 0
x[778] 0
x[779] 0
x[780] 1
x[781] 1
x[782] 0
x[783] 0
x[784] 0
x[785] 1
x[786] 1
x[787] 1
x[788] 1
x[789] 1
x[790] 1
x[791] 1
x[792] 0
x[793] 0
x[794] 0
x[795] 1
x[796] 1
x[797] 0
x[798] 1
x[799] 0
x[800] 1
x[801] 1
x[802] 0
x[803] 1
x[804] 1
x[805] 0
x[806] 1
x[807] 1
x[808] 1
x[809] 0
x[810] 1
x[811] 0
x[812] 1
x[813] 1
x[814] 0
x[815] 1
x[816] 0
x[817] 0
x[818] 0
x[819] 1
x[820] 0
x[821] 1
x[822] 0
x[823] 0
x[824] 0
x[825] 1
x[826] 0
x[827] 0
x[828] 0
x[829] 0
x[830] 1
x[831] 1
x[832] 1
x[833] 0
x[834] 0
x[835] 0
x[836] 1
x[837] 0
x[838] 1
x[839] 0
x[840] 1
x[841] 1
x[842] 0
x[843] 1
x[844] 1
x[845] 0
x[846] 1
x[847] 1
x[848] 1
x[849] 0
x[850] 1
x[851] 1
x[852] 1
x[853] 1
x[854] 1
x[855] 1
x[856] 1
x[857] 0
x[858] 1
x[859] 1
x[860] 0
x[861] 0
x[862] 0
x[863] 0
x[864] 1
x[865] 1
x[866] 1
x[867] 1
x[868] 1
x[869] 0
x[870] 1
x[871] 1
x[872] 0
x[873] 1
x[874] 0
x[875] 1
x[876] 0
x[877] 1
x[878] 1
x[879] 0
x[880] 1
x[881] 0
x[882] 0
x[883] 1
x[884] 1
x[885] 1
x[886] 1
x[887] 1
x[888] 1
x[889] 0
x[890] 1
x[891] 1
x[892] 1
x[893] 0
x[894] 0
x[895] 0
x[896] 1
x[897] 1
x[898] 1
x[899] 1
x[900] 1
x[901] 0
x[902] 1
x[903] 0
x[904] 0
x[905] 0
x[906] 1
x[907] 0
x[908] 1
x[909] 1
x[910] 1
x[911] 0
x[912] 0
x[913] 0
x[914] 0
x[915] 0
x[916] 1
x[917] 1
x[918] 0
x[919] 1
x[920] 1
x[921] 0
x[922] 1
x[923] 1
x[924] 1
x[925] 1
x[926] 0
x[927] 0
x[928] 0
x[929] 1
x[930] 0
x[931] 1
x[932] 1
x[933] 0
x[934] 1
x[935] 0
x[936] 1
x[937] 1
x[938] 1
x[939] 0
x[940] 1
x[941] 1
x[942] 1
x[943] 0
x[944] 0
x[945] 0
x[946] 1
x[947] 1
x[948] 1
x[949] 0
x[950] 1
x[951] 1
x[952] 0
x[953] 0
x[954] 1
x[955] 1
x[956] 1
x[957] 1
x[958] 1
x[959] 0
x[960] 0
x[961] 1
x[962] 1
x[963] 0
x[964] 1
x[965] 0
x[966] 1
x[967] 1
x[968] 1
x[969] 1
x[970] 0
x[971] 1
x[972] 0
x[973] 0
x[974] 0
x[975] 1
x[976] 1
x[977] 1
x[978] 1
x[979] 1
x[980] 0
x[981] 1
x[982] 1
x[983] 0
x[984] 1
x[985] 0
x[986] 1
x[987] 1
x[988] 1
x[989] 1
x[990] 1
x[991] 0
x[992] 0
x[993] 1
x[994] 1
x[995] 0
x[996] 0
x[997] 0
x[998] 0
x[999] 0
